(set-info :smt-lib-version 2.6)
(set-logic UFLIA)
(set-info :source |
Generated by: Geoff Sutcliffe
Generated on: 2026-03-11
Generator: TPTPWorld
Application: Benchmarking automated theorem provers
Time limit: 120.0

These benchmarks are translations from the TPTP Library (Thousands of
Problems for Theorem Provers), see http://www.cs.miami.edu/~tptp/

The TPTP is maintained by Geoff Sutcliffe, and he contributed this
selection of benchmarks to SMT-LIB.  They were exported from the
v9.2.1 realease of TPTP.
|)
(set-info :category "industrial")
(set-info :status unknown)
; SZS status Success
(declare-sort $$unsorted 0)
(declare-sort |tptp.'Array[Int,Int]'| 0)
(declare-sort |tptp.'Queue'| 0)
(declare-fun tptp.size (|tptp.'Queue'|) Int)
(declare-fun tptp.elems (|tptp.'Queue'|) |tptp.'Array[Int,Int]'|)
(declare-fun |tptp.'store:(Array[Int,Int]*Int*Int)>Array[Int,Int]'| (|tptp.'Array[Int,Int]'| Int Int) |tptp.'Array[Int,Int]'|)
(declare-fun |tptp.'const:(Int)>Array[Int,Int]'| (Int) |tptp.'Array[Int,Int]'|)
(declare-fun |tptp.'select:(Array[Int,Int]*Int)>Int'| (|tptp.'Array[Int,Int]'| Int) Int)
(declare-fun tptp.key (Int) Int)
(assert (not (forall ((A__questionmark_i Int) (A__questionmark_pp |tptp.'Queue'|)) (exists ((A__questionmark_v_0_1 |tptp.'Array[Int,Int]'|)) (and (= A__questionmark_v_0_1 (tptp.elems A__questionmark_pp)) (=> (and (>= A__questionmark_i 0) (forall ((A__questionmark_j Int) (A__questionmark_k Int)) (=> (and (> A__questionmark_j 0) (< A__questionmark_j (tptp.size A__questionmark_pp)) (>= A__questionmark_k 0) (< A__questionmark_k A__questionmark_j) (not (= A__questionmark_i A__questionmark_j))) (<= (tptp.key (|tptp.'select:(Array[Int,Int]*Int)>Int'| A__questionmark_v_0_1 A__questionmark_j)) (tptp.key (|tptp.'select:(Array[Int,Int]*Int)>Int'| A__questionmark_v_0_1 A__questionmark_k))))) (not (<= (tptp.key (|tptp.'select:(Array[Int,Int]*Int)>Int'| A__questionmark_v_0_1 A__questionmark_i)) (tptp.key (|tptp.'select:(Array[Int,Int]*Int)>Int'| A__questionmark_v_0_1 (- A__questionmark_i 1))))) (> A__questionmark_i 0) (< A__questionmark_i (tptp.size A__questionmark_pp))) (forall ((A__questionmark_j Int) (A__questionmark_k Int) (A__questionmark_ee |tptp.'Array[Int,Int]'|)) (exists ((A__questionmark_v_1_2 Int)) (and (= A__questionmark_v_1_2 (- A__questionmark_i 1)) (=> (and (> A__questionmark_j 0) (< A__questionmark_j (tptp.size A__questionmark_pp)) (>= A__questionmark_k 0) (< A__questionmark_k A__questionmark_j) (not (= A__questionmark_j A__questionmark_v_1_2)) (= A__questionmark_ee (|tptp.'store:(Array[Int,Int]*Int*Int)>Array[Int,Int]'| (|tptp.'store:(Array[Int,Int]*Int*Int)>Array[Int,Int]'| A__questionmark_v_0_1 A__questionmark_v_1_2 (|tptp.'select:(Array[Int,Int]*Int)>Int'| A__questionmark_v_0_1 A__questionmark_i)) A__questionmark_i (|tptp.'select:(Array[Int,Int]*Int)>Int'| A__questionmark_v_0_1 A__questionmark_v_1_2)))) (<= (tptp.key (|tptp.'select:(Array[Int,Int]*Int)>Int'| A__questionmark_ee A__questionmark_j)) (tptp.key (|tptp.'select:(Array[Int,Int]*Int)>Int'| A__questionmark_ee A__questionmark_k)))))))))))))
(assert (forall ((A |tptp.'Array[Int,Int]'|) (I Int) (E Int)) (= (|tptp.'select:(Array[Int,Int]*Int)>Int'| (|tptp.'store:(Array[Int,Int]*Int*Int)>Array[Int,Int]'| A I E) I) E)))
(assert (forall ((A |tptp.'Array[Int,Int]'|) (I Int) (J Int) (E Int)) (=> (not (= I J)) (= (|tptp.'select:(Array[Int,Int]*Int)>Int'| (|tptp.'store:(Array[Int,Int]*Int*Int)>Array[Int,Int]'| A I E) J) (|tptp.'select:(Array[Int,Int]*Int)>Int'| A J)))))
(assert (forall ((A |tptp.'Array[Int,Int]'|) (B |tptp.'Array[Int,Int]'|)) (=> (forall ((I Int)) (= (|tptp.'select:(Array[Int,Int]*Int)>Int'| A I) (|tptp.'select:(Array[Int,Int]*Int)>Int'| B I))) (= A B))))
(assert (forall ((I Int) (E Int)) (= (|tptp.'select:(Array[Int,Int]*Int)>Int'| (|tptp.'const:(Int)>Array[Int,Int]'| E) I) E)))
(check-sat)
(exit)
